This is Ipopt version 3.10.1, running with linear solver mumps.

Number of nonzeros in equality constraint Jacobian...:      177
Number of nonzeros in inequality constraint Jacobian.:        0
Number of nonzeros in Lagrangian Hessian.............:     3324

Total number of variables............................:       90
                     variables with only lower bounds:        0
                variables with lower and upper bounds:       90
                     variables with only upper bounds:        0
Total number of equality constraints.................:       59
Total number of inequality constraints...............:        0
        inequality constraints with only lower bounds:        0
   inequality constraints with lower and upper bounds:        0
        inequality constraints with only upper bounds:        0

iter    objective    inf_pr   inf_du lg(mu)  ||d||  lg(rg) alpha_du alpha_pr  ls
   0 -3.2554782e-04 1.00e-02 2.77e-04  -1.0 0.00e+00    -  0.00e+00 0.00e+00   0
   1 -3.6560607e-04 5.93e-10 4.10e-03  -1.7 2.48e-02    -  9.73e-01 1.00e+00h  1
   2 -3.5507828e-04 4.01e-10 8.68e-03  -2.5 3.37e-02    -  9.47e-01 1.00e+00f  1
   3 -3.9187481e-04 2.22e-16 8.62e-04  -3.8 3.25e-02    -  9.48e-01 1.00e+00f  1
   4 -1.0667997e-03 1.09e-12 1.02e-03  -5.7 8.50e-02    -  5.89e-01 1.00e+00f  1
   5 -2.0337032e-03 5.19e-13 1.25e-03  -5.7 9.88e-02  -2.0 6.43e-01 5.69e-01f  1
   6 -2.7910961e-03 2.75e-13 1.68e-03  -5.7 5.98e-02  -1.6 9.36e-01 4.70e-01f  1
   7 -3.2389524e-03 1.06e-13 1.88e-03  -5.7 2.49e-02  -1.1 1.00e+00 6.14e-01f  1
   8 -4.3210784e-03 8.68e-14 7.67e-03  -5.7 1.96e-01  -1.6 1.00e+00 1.81e-01f  1
   9 -5.0600989e-03 4.45e-13 2.75e-03  -5.7 4.73e-02  -1.2 1.00e+00 4.03e-01f  1
iter    objective    inf_pr   inf_du lg(mu)  ||d||  lg(rg) alpha_du alpha_pr  ls
  10 -6.9025421e-03 4.12e-13 1.79e-02  -5.7 6.97e-01  -1.7 4.91e-01 7.32e-02f  1
  11 -8.3178773e-03 2.29e-13 6.25e-03  -5.7 7.04e-02  -1.3 1.00e+00 4.46e-01f  1
  12 -8.8787729e-03 1.27e-13 3.49e-03  -5.7 2.63e-02  -0.8 1.00e+00 4.46e-01f  1
  13 -1.0173347e-02 9.85e-14 8.50e-03  -5.7 1.10e-01  -1.3 1.00e+00 2.22e-01f  1
  14 -1.1899458e-02 1.23e-12 4.54e-03  -5.7 3.36e-02  -0.9 1.00e+00 1.00e+00f  1
  15 -1.3109030e-02 1.12e-12 2.34e-02  -5.7 2.32e-01  -1.4 1.00e+00 8.68e-02f  1
  16 -1.4277588e-02 1.46e-12 7.79e-03  -5.7 3.78e-02  -0.9 1.00e+00 4.76e-01f  1
  17 -1.6806224e-02 1.25e-12 2.67e-02  -5.7 2.99e-01  -1.4 9.44e-01 1.44e-01f  1
  18 -1.7292563e-02 1.39e-12 1.07e-02  -5.7 5.81e-02  -1.0 1.00e+00 1.03e-01f  1
  19 -2.4688636e-02 3.60e-12 2.23e-02  -5.7 5.26e-01  -1.5 5.13e-01 1.99e-01f  1
iter    objective    inf_pr   inf_du lg(mu)  ||d||  lg(rg) alpha_du alpha_pr  ls
  20 -3.6765949e-02 1.36e-12 1.56e-02  -5.7 1.35e-01  -1.0 8.08e-01 6.21e-01f  1
  21 -3.8084149e-02 2.54e-12 2.81e-02  -5.7 6.19e-02  -0.6 7.30e-01 1.38e-01f  1
  22 -3.9457030e-02 3.18e-12 7.42e-02  -5.7 1.05e+00  -1.1 1.90e-01 8.75e-03f  1
  23 -4.7754680e-02 1.41e-12 1.78e-02  -5.7 7.96e-02  -0.7 1.00e+00 5.58e-01f  1
  24 -4.9154263e-02 2.55e-12 2.29e-02  -5.7 2.82e-02  -0.2 8.02e-01 2.87e-01f  1
  25 -5.7286910e-02 5.29e-12 3.83e-02  -5.7 1.15e-01  -0.7 1.00e+00 3.26e-01f  1
  26 -4.7661908e-02 4.95e-12 4.93e-02  -5.7 8.37e-01  -1.2 3.14e-03 6.52e-02h  1
  27 -4.7744000e-02 4.93e-12 5.13e-02  -5.7 1.16e-01  -0.8 5.21e-01 3.97e-03f  1
  28 -4.7849578e-02 4.84e-12 6.17e-02  -5.7 1.39e+00  -0.3 4.94e-02 1.78e-02f  1
  29 -4.7965259e-02 4.82e-12 6.21e-02  -5.7 1.23e-01  -0.8 9.08e-01 4.65e-03f  1
iter    objective    inf_pr   inf_du lg(mu)  ||d||  lg(rg) alpha_du alpha_pr  ls
  30 -5.4918401e-02 6.66e-16 1.34e-02  -5.7 3.29e-02  -0.4 1.00e+00 1.00e+00f  1
  31 -5.7127234e-02 1.14e-12 1.53e-02  -5.7 2.04e-01  -0.9 2.29e-01 4.41e-02f  1
  32 -6.8333128e-02 1.11e-15 1.67e-02  -5.7 4.56e-02  -0.4 1.00e+00 1.00e+00f  1
  33 -8.0048059e-02 1.11e-15 2.24e-02  -5.7 8.36e-01  -0.9 5.59e-02 4.61e-02f  1
  34 -8.3497206e-02 1.11e-15 8.68e-02  -5.7 7.01e-02  -0.5 7.24e-01 1.83e-01f  1
  35 -9.8025656e-02 7.14e-12 1.23e-01  -5.7 9.30e-01  -1.0 1.25e-01 5.26e-02f  1
  36 -1.0649973e-01 5.61e-12 9.90e-02  -5.7 1.35e-01  -0.5 3.43e-01 2.15e-01f  1
  37 -1.0649905e-01 5.61e-12 9.66e-02  -5.7 2.30e+00  -1.0 1.66e-03 1.10e-06f 14
  38 -1.0647885e-01 5.61e-12 9.19e-02  -5.7 6.42e+01  -0.6 5.67e-04 8.36e-06f  7
  39 -1.0631232e-01 5.61e-12 8.74e-02  -5.7 9.90e-01  -1.1 8.42e-03 6.03e-04h  1
iter    objective    inf_pr   inf_du lg(mu)  ||d||  lg(rg) alpha_du alpha_pr  ls
  40 -1.1415346e-01 5.02e-12 6.56e-02  -5.7 2.34e-01  -0.6 1.03e-02 1.05e-01f  1
  41 -1.1432297e-01 4.98e-12 2.87e-01  -5.7 1.76e-01  -0.2 4.89e-01 8.53e-03f  1
  42 -1.2367184e-01 4.60e-12 2.48e-01  -5.7 3.61e-01  -0.7 3.97e-01 7.66e-02f  1
  43 -1.7843718e-01 4.54e-12 1.98e-01  -5.7 1.44e+01  -1.2 1.02e-03 1.25e-02f  1
  44 -1.8271423e-01 5.29e-12 2.50e-01  -5.7 3.52e+00  -0.7 1.43e-02 1.48e-03f  1
  45 -2.1016676e-01 3.78e-12 1.75e-01  -5.7 1.00e-01  -0.3 4.66e-01 2.85e-01f  1
  46 -2.1037886e-01 3.80e-12 1.44e-01  -5.7 2.95e-02   0.1 4.19e-01 7.93e-03f  1
  47 -2.3325544e-01 1.15e-11 1.03e-01  -5.7 1.39e-01  -0.4 2.18e-02 1.69e-01f  1
  48 -2.6310189e-01 3.90e-12 5.01e-02  -5.7 4.06e-02   0.1 1.00e+00 6.62e-01f  1
  49 -2.6851887e-01 3.85e-12 5.13e-02  -5.7 3.93e-01  -0.4 2.39e-02 1.16e-02f  1
iter    objective    inf_pr   inf_du lg(mu)  ||d||  lg(rg) alpha_du alpha_pr  ls
  50 -2.6851616e-01 3.85e-12 5.13e-02  -5.7 3.71e-01  -0.9 2.02e-03 7.90e-06f 12
  51 -2.6850649e-01 3.85e-12 5.13e-02  -5.7 4.15e+01  -0.5 1.24e-04 3.23e-07f 11
  52 -2.7146644e-01 3.70e-12 2.10e-01  -5.7 7.00e-02  -0.0 1.00e+00 3.98e-02f  1
  53 -2.7614039e-01 5.01e-12 2.21e-01  -5.7 8.95e-01  -0.5 1.87e-02 5.17e-03f  1
  54 -2.7614003e-01 5.01e-12 2.13e-01  -5.7 3.51e-01  -1.0 2.17e-02 1.20e-06f 16
  55 -2.7612813e-01 5.01e-12 1.67e-01  -5.7 4.46e+01  -0.6 7.63e-04 2.49e-07f 11
  56 -2.6424453e-01 4.78e-12 1.47e-01  -5.7 3.66e-01  -1.0 9.16e-02 4.48e-02h  1
  57 -2.6468021e-01 4.92e-12 1.47e-01  -5.7 2.67e+00  -0.6 5.43e-05 1.88e-04f  3
  58 -2.6468185e-01 4.92e-12 1.47e-01  -5.7 2.65e+00  -1.1 1.29e-04 1.03e-04f  2
  59 -2.6450689e-01 4.92e-12 1.47e-01  -5.7 4.89e+00  -0.7 3.38e-05 4.19e-05h  1
iter    objective    inf_pr   inf_du lg(mu)  ||d||  lg(rg) alpha_du alpha_pr  ls
  60 -2.6464168e-01 4.91e-12 1.46e-01  -5.7 1.36e-01  -0.2 4.02e-05 1.02e-03f  1
  61 -2.6464180e-01 4.91e-12 1.46e-01  -5.7 3.23e-01   0.2 1.87e-03 2.83e-05f  2
  62 -3.2259503e-01 3.33e-12 1.17e-01  -5.7 1.66e-01  -0.3 1.01e-02 3.22e-01f  1
  63 -3.2258965e-01 3.33e-12 1.17e-01  -5.7 4.73e-01    -  6.30e-05 2.44e-05f 11
  64 -3.2264956e-01 3.33e-12 1.18e-01  -5.7 5.70e-02   0.1 2.42e-01 9.64e-04f  1
  65 -3.2434093e-01 3.18e-12 1.12e-01  -5.7 9.70e-01    -  9.39e-02 4.33e-02f  1
  66 -3.2696983e-01 3.17e-12 1.11e-01  -5.7 2.16e+00    -  5.40e-03 4.94e-03f  1
  67 -3.2998329e-01 3.12e-12 1.04e-01  -5.7 9.05e-01    -  5.55e-03 1.41e-02f  1
  68 -3.2997786e-01 3.12e-12 1.05e-01  -5.7 1.99e-01    -  6.71e-03 4.42e-05f  8
  69 -3.3117306e-01 3.10e-12 7.80e-01  -5.7 2.99e-01  -0.3 9.13e-01 6.10e-03f  1
iter    objective    inf_pr   inf_du lg(mu)  ||d||  lg(rg) alpha_du alpha_pr  ls
  70 -3.3654809e-01 2.66e-12 2.60e-01  -5.7 5.86e-02   0.1 8.02e-01 1.42e-01f  1
  71 -4.1948942e-01 4.74e-11 3.87e-01  -5.7 4.20e-01  -0.4 1.00e+00 2.47e-01f  1
  72 -4.1983701e-01 3.14e-11 4.26e-01  -5.7 4.50e-02    -  9.04e-01 3.37e-01f  2
  73 -4.2839666e-01 3.85e-12 6.86e-02  -5.7 3.07e-02    -  1.00e+00 8.77e-01f  1
  74 -4.2840188e-01 4.66e-11 1.31e-01  -5.7 2.91e-04    -  3.39e-02 8.77e-02f  1
  75 -4.2845417e-01 9.65e-11 2.77e-08  -5.7 8.14e-05    -  1.00e+00 1.00e+00f  1
  76 -4.2858392e-01 8.22e-15 3.83e-08  -8.6 7.46e-05    -  1.00e+00 1.00e+00f  1
  77 -4.2858389e-01 1.23e-11 2.48e-15  -8.6 9.48e-09    -  1.00e+00 1.00e+00f  1

Number of Iterations....: 77

                                   (scaled)                 (unscaled)
Objective...............:  -4.2858389345620496e-01   -4.2858389345620496e-01
Dual infeasibility......:   2.4836034583636474e-15    2.4836034583636474e-15
Constraint violation....:   1.2322254328012150e-11    1.2322254328012150e-11
Complementarity.........:   4.1834691820112875e-09    4.1834691820112875e-09
Overall NLP error.......:   4.1834691820112875e-09    4.1834691820112875e-09


Number of objective function evaluations             = 166
Number of objective gradient evaluations             = 78
Number of equality constraint evaluations            = 166
Number of inequality constraint evaluations          = 0
Number of equality constraint Jacobian evaluations   = 1
Number of inequality constraint Jacobian evaluations = 0
Number of Lagrangian Hessian evaluations             = 77
Total CPU secs in IPOPT (w/o function evaluations)   =      0.260
Total CPU secs in NLP function evaluations           =      2.590

EXIT: Optimal Solution Found.
